NAME: ../File/prFile/tspFile/tsp_file29.tsp
COMMENT: TSP file generated by Python
TYPE: TSP
DIMENSION: 30
EDGE_WEIGHT_TYPE: EUC_2D
NODE_COORD_SECTION
1 61 42
2 60 80
3 29 21
4 59 52
5 47 91
6 67 4
7 2 32
8 27 60
9 40 23
10 95 34
11 81 100
12 50 44
13 34 78
14 47 46
15 23 13
16 59 21
17 77 1
18 56 24
19 70 46
20 9 19
21 68 68
22 52 72
23 65 75
24 61 22
25 35 7
26 39 31
27 42 98
28 24 57
29 10 69
30 16 29
EOF
